benchmarks_CP/INST_64x64/40/inst64x64_40_23.dzn
S=8;
start=[|
-1,	-1,	-1,	1,	-1,	11,	-1,	-1,	60,	40,	-1,	-1,	-1,	-1,	-1,	36,	-1,	-1,	-1,	9,	10,	-1,	-1,	3,	-1,	54,	-1,	-1,	-1,	-1,	27,	-1,	38,	-1,	44,	-1,	-1,	58,	-1,	-1,	35,	-1,	57,	-1,	-1,	49,	-1,	-1,	17,	-1,	-1,	-1,	-1,	-1,	2,	26,	-1,	-1,	55,	-1,	8,	-1,	-1,	-1|
-1,	-1,	-1,	-1,	-1,	42,	-1,	-1,	-1,	-1,	-1,	-1,	-1,	-1,	-1,	-1,	-1,	-1,	52,	-1,	-1,	-1,	-1,	-1,	-1,	41,	-1,	-1,	-1,	-1,	-1,	-1,	-1,	45,	-1,	-1,	55,	11,	-1,	-1,	1,	33,	-1,	-1,	-1,	29,	-1,	-1,	-1,	-1,	48,	-1,	-1,	-1,	-1,	-1,	16,	46,	27,	2,	37,	40,	-1,	-1|
-1,	-1,	51,	44,	-1,	45,	-1,	-1,	-1,	-1,	-1,	17,	9,	-1,	-1,	21,	-1,	-1,	32,	-1,	-1,	-1,	11,	-1,	-1,	-1,	24,	-1,	-1,	-1,	1,	64,	-1,	41,	39,	-1,	-1,	54,	-1,	6,	-1,	5,	-1,	47,	28,	13,	-1,	60,	-1,	-1,	-1,	-1,	-1,	57,	52,	12,	38,	-1,	35,	-1,	61,	-1,	43,	33|
-1,	64,	-1,	-1,	-1,	-1,	-1,	-1,	38,	-1,	-1,	30,	7,	14,	10,	-1,	6,	-1,	-1,	44,	-1,	1,	4,	-1,	-1,	35,	-1,	-1,	-1,	42,	45,	-1,	62,	-1,	16,	-1,	28,	-1,	-1,	-1,	31,	27,	-1,	-1,	-1,	-1,	-1,	-1,	-1,	51,	37,	33,	-1,	53,	-1,	-1,	-1,	24,	54,	-1,	-1,	-1,	-1,	-1|
-1,	-1,	4,	-1,	55,	56,	10,	-1,	-1,	-1,	64,	-1,	-1,	34,	1,	-1,	-1,	-1,	46,	-1,	-1,	-1,	47,	-1,	57,	-1,	-1,	-1,	7,	13,	-1,	-1,	24,	33,	8,	-1,	-1,	-1,	2,	31,	-1,	51,	-1,	18,	-1,	41,	-1,	37,	16,	22,	-1,	27,	40,	3,	-1,	32,	-1,	-1,	-1,	-1,	-1,	-1,	-1,	-1|
19,	-1,	-1,	-1,	-1,	-1,	-1,	-1,	-1,	-1,	53,	37,	-1,	-1,	-1,	50,	-1,	-1,	-1,	-1,	40,	33,	63,	-1,	-1,	-1,	32,	44,	-1,	3,	52,	38,	-1,	49,	42,	-1,	-1,	29,	25,	-1,	-1,	4,	-1,	45,	16,	-1,	-1,	-1,	-1,	20,	41,	15,	10,	-1,	-1,	-1,	-1,	-1,	-1,	-1,	-1,	-1,	1,	-1|
27,	-1,	31,	-1,	23,	60,	41,	-1,	-1,	-1,	33,	-1,	39,	-1,	29,	-1,	-1,	-1,	-1,	37,	-1,	-1,	5,	-1,	17,	4,	-1,	-1,	-1,	-1,	-1,	-1,	7,	-1,	40,	30,	-1,	-1,	51,	-1,	56,	42,	-1,	-1,	58,	22,	10,	52,	-1,	-1,	-1,	-1,	50,	44,	-1,	13,	63,	21,	12,	-1,	-1,	-1,	25,	-1|
54,	33,	40,	15,	25,	-1,	47,	-1,	6,	-1,	2,	11,	45,	-1,	22,	-1,	-1,	-1,	-1,	-1,	-1,	8,	28,	-1,	61,	-1,	21,	-1,	58,	16,	-1,	-1,	-1,	-1,	-1,	-1,	20,	-1,	3,	26,	34,	-1,	12,	9,	36,	-1,	-1,	38,	4,	5,	63,	46,	49,	24,	-1,	-1,	51,	-1,	44,	64,	-1,	-1,	7,	23|
46,	-1,	22,	-1,	9,	1,	-1,	42,	-1,	25,	-1,	35,	-1,	-1,	-1,	-1,	-1,	26,	-1,	58,	19,	28,	-1,	-1,	47,	-1,	-1,	-1,	-1,	-1,	-1,	50,	-1,	-1,	-1,	52,	-1,	-1,	-1,	40,	-1,	-1,	-1,	53,	-1,	7,	-1,	36,	39,	37,	-1,	-1,	-1,	23,	29,	-1,	-1,	27,	-1,	-1,	54,	-1,	-1,	57|
-1,	-1,	16,	10,	-1,	50,	-1,	-1,	12,	20,	-1,	-1,	-1,	-1,	59,	-1,	-1,	-1,	-1,	36,	-1,	52,	-1,	-1,	25,	-1,	27,	8,	-1,	-1,	-1,	-1,	47,	-1,	49,	-1,	-1,	-1,	17,	-1,	42,	-1,	-1,	41,	-1,	33,	22,	-1,	46,	34,	-1,	38,	-1,	1,	-1,	3,	-1,	-1,	45,	63,	-1,	60,	61,	-1|
-1,	38,	-1,	23,	-1,	-1,	-1,	49,	-1,	-1,	-1,	-1,	-1,	21,	-1,	-1,	-1,	9,	53,	48,	47,	-1,	-1,	14,	-1,	-1,	46,	-1,	-1,	-1,	15,	-1,	35,	-1,	-1,	-1,	-1,	22,	-1,	-1,	-1,	19,	-1,	-1,	27,	-1,	-1,	-1,	18,	13,	-1,	11,	-1,	20,	63,	-1,	26,	-1,	62,	17,	10,	-1,	28,	6|
-1,	-1,	-1,	53,	-1,	-1,	-1,	-1,	-1,	-1,	37,	-1,	30,	47,	-1,	-1,	-1,	-1,	-1,	3,	-1,	-1,	-1,	21,	-1,	-1,	-1,	-1,	-1,	-1,	-1,	-1,	-1,	-1,	-1,	62,	-1,	-1,	63,	-1,	-1,	-1,	14,	54,	17,	-1,	-1,	18,	-1,	56,	-1,	-1,	61,	40,	-1,	-1,	-1,	-1,	-1,	-1,	-1,	31,	35,	59|
-1,	-1,	36,	-1,	-1,	14,	43,	18,	52,	17,	-1,	19,	-1,	-1,	-1,	49,	-1,	7,	8,	42,	56,	-1,	38,	-1,	48,	-1,	-1,	3,	10,	-1,	62,	-1,	-1,	34,	-1,	28,	-1,	-1,	-1,	-1,	57,	-1,	-1,	-1,	-1,	-1,	-1,	6,	-1,	16,	-1,	2,	5,	-1,	-1,	-1,	-1,	-1,	-1,	-1,	-1,	-1,	-1,	-1|
-1,	-1,	8,	-1,	-1,	-1,	-1,	-1,	39,	3,	41,	46,	-1,	-1,	-1,	-1,	10,	-1,	-1,	59,	31,	-1,	25,	-1,	-1,	44,	-1,	2,	24,	-1,	-1,	-1,	51,	27,	-1,	-1,	-1,	43,	-1,	-1,	-1,	49,	-1,	50,	12,	52,	-1,	23,	53,	33,	54,	21,	58,	6,	-1,	48,	14,	-1,	64,	-1,	-1,	16,	55,	18|
28,	-1,	39,	-1,	34,	4,	52,	-1,	-1,	13,	-1,	-1,	-1,	-1,	-1,	31,	-1,	11,	-1,	23,	60,	44,	35,	50,	-1,	59,	-1,	-1,	49,	-1,	54,	57,	-1,	-1,	18,	-1,	46,	-1,	-1,	-1,	8,	-1,	-1,	62,	25,	10,	-1,	5,	-1,	-1,	-1,	-1,	-1,	36,	-1,	-1,	1,	-1,	3,	-1,	-1,	-1,	-1,	-1|
21,	44,	5,	-1,	31,	-1,	-1,	62,	-1,	-1,	-1,	38,	-1,	-1,	48,	45,	22,	-1,	16,	20,	-1,	-1,	-1,	-1,	-1,	-1,	26,	30,	-1,	39,	-1,	-1,	11,	36,	60,	24,	-1,	25,	23,	57,	55,	-1,	15,	-1,	61,	28,	-1,	-1,	50,	-1,	-1,	19,	-1,	4,	-1,	14,	-1,	-1,	-1,	-1,	-1,	2,	-1,	58|
-1,	1,	-1,	-1,	-1,	2,	-1,	19,	-1,	-1,	30,	29,	-1,	42,	-1,	-1,	25,	33,	-1,	-1,	-1,	-1,	12,	57,	-1,	-1,	34,	63,	41,	48,	35,	-1,	45,	-1,	17,	-1,	39,	21,	-1,	60,	-1,	-1,	13,	-1,	8,	-1,	-1,	15,	40,	10,	-1,	-1,	-1,	11,	16,	52,	-1,	28,	9,	-1,	-1,	-1,	26,	-1|
60,	-1,	-1,	32,	-1,	-1,	12,	-1,	-1,	-1,	-1,	-1,	-1,	-1,	2,	-1,	-1,	22,	56,	-1,	39,	35,	-1,	64,	33,	-1,	55,	-1,	-1,	-1,	57,	-1,	-1,	52,	-1,	48,	27,	38,	10,	47,	-1,	-1,	-1,	-1,	1,	11,	-1,	-1,	-1,	36,	15,	-1,	-1,	31,	43,	-1,	46,	-1,	-1,	-1,	50,	-1,	-1,	16|
25,	6,	33,	-1,	-1,	31,	55,	23,	22,	8,	-1,	12,	5,	-1,	16,	-1,	-1,	32,	-1,	61,	-1,	-1,	36,	-1,	52,	56,	-1,	-1,	1,	38,	37,	-1,	-1,	-1,	-1,	-1,	-1,	-1,	11,	46,	-1,	28,	-1,	-1,	21,	53,	-1,	-1,	48,	-1,	44,	-1,	-1,	-1,	-1,	59,	-1,	-1,	-1,	-1,	-1,	7,	-1,	-1|
-1,	53,	-1,	-1,	-1,	3,	29,	24,	-1,	-1,	-1,	-1,	14,	-1,	-1,	-1,	-1,	-1,	26,	-1,	-1,	63,	-1,	-1,	40,	-1,	-1,	-1,	-1,	-1,	-1,	-1,	-1,	-1,	1,	-1,	-1,	-1,	32,	7,	-1,	-1,	55,	-1,	-1,	-1,	-1,	-1,	57,	-1,	-1,	62,	28,	-1,	-1,	21,	-1,	-1,	-1,	-1,	11,	37,	-1,	20|
40,	-1,	21,	-1,	-1,	20,	-1,	-1,	45,	60,	24,	-1,	-1,	-1,	-1,	9,	-1,	23,	31,	-1,	27,	-1,	41,	-1,	39,	-1,	-1,	49,	42,	19,	18,	15,	28,	2,	-1,	-1,	-1,	55,	62,	-1,	-1,	12,	17,	-1,	35,	-1,	34,	57,	-1,	-1,	-1,	-1,	46,	-1,	-1,	-1,	3,	63,	-1,	-1,	-1,	48,	14,	47|
26,	28,	-1,	-1,	-1,	36,	-1,	-1,	-1,	-1,	-1,	-1,	20,	48,	-1,	-1,	-1,	3,	-1,	-1,	55,	9,	8,	-1,	-1,	46,	29,	-1,	-1,	6,	-1,	10,	-1,	-1,	-1,	-1,	34,	-1,	-1,	19,	-1,	-1,	-1,	-1,	-1,	-1,	-1,	54,	38,	53,	33,	56,	-1,	-1,	-1,	17,	12,	-1,	21,	-1,	42,	-1,	27,	-1|
-1,	-1,	57,	-1,	-1,	47,	45,	-1,	-1,	52,	28,	-1,	-1,	-1,	-1,	46,	-1,	-1,	-1,	34,	15,	17,	-1,	-1,	-1,	16,	-1,	-1,	30,	22,	8,	-1,	25,	-1,	-1,	-1,	-1,	9,	6,	-1,	-1,	-1,	-1,	-1,	64,	-1,	-1,	-1,	-1,	4,	50,	-1,	-1,	63,	-1,	-1,	60,	-1,	49,	62,	40,	-1,	-1,	-1|
39,	-1,	-1,	-1,	-1,	43,	9,	11,	-1,	55,	-1,	-1,	-1,	57,	-1,	-1,	-1,	-1,	-1,	1,	37,	-1,	16,	-1,	26,	-1,	-1,	20,	-1,	32,	-1,	-1,	-1,	40,	-1,	-1,	-1,	23,	-1,	64,	7,	-1,	31,	48,	60,	19,	4,	2,	-1,	-1,	-1,	-1,	35,	-1,	-1,	-1,	33,	-1,	-1,	18,	-1,	-1,	52,	-1|
35,	32,	10,	-1,	52,	16,	-1,	54,	-1,	-1,	-1,	-1,	-1,	30,	-1,	-1,	-1,	5,	63,	-1,	-1,	46,	-1,	6,	62,	-1,	-1,	-1,	-1,	-1,	-1,	-1,	55,	-1,	-1,	-1,	50,	37,	28,	-1,	36,	-1,	-1,	17,	22,	-1,	-1,	49,	13,	-1,	-1,	-1,	-1,	-1,	7,	40,	57,	11,	-1,	34,	-1,	42,	15,	-1|
-1,	13,	-1,	-1,	-1,	63,	-1,	-1,	7,	32,	-1,	64,	-1,	56,	-1,	-1,	-1,	51,	29,	-1,	-1,	-1,	-1,	-1,	-1,	22,	-1,	1,	-1,	-1,	61,	-1,	-1,	31,	21,	-1,	-1,	-1,	-1,	39,	16,	-1,	-1,	55,	3,	-1,	-1,	-1,	5,	-1,	28,	-1,	-1,	-1,	37,	-1,	18,	17,	-1,	9,	-1,	43,	38,	50|
-1,	-1,	43,	-1,	-1,	-1,	-1,	17,	-1,	42,	13,	-1,	-1,	-1,	-1,	-1,	-1,	27,	15,	-1,	-1,	-1,	-1,	-1,	-1,	-1,	-1,	-1,	-1,	-1,	-1,	56,	-1,	-1,	25,	-1,	-1,	-1,	1,	-1,	-1,	-1,	-1,	-1,	19,	23,	18,	-1,	33,	9,	-1,	-1,	-1,	62,	-1,	31,	-1,	39,	6,	-1,	16,	-1,	-1,	49|
-1,	-1,	34,	-1,	-1,	-1,	11,	64,	41,	37,	43,	14,	-1,	-1,	-1,	5,	20,	-1,	-1,	-1,	-1,	-1,	31,	-1,	-1,	-1,	-1,	23,	35,	-1,	-1,	-1,	32,	-1,	6,	-1,	-1,	47,	-1,	30,	-1,	-1,	53,	-1,	-1,	-1,	-1,	40,	52,	49,	2,	63,	18,	-1,	-1,	27,	-1,	-1,	-1,	19,	-1,	-1,	-1,	-1|
-1,	7,	23,	-1,	3,	49,	-1,	-1,	-1,	35,	-1,	9,	-1,	-1,	15,	-1,	1,	25,	-1,	-1,	64,	-1,	-1,	-1,	16,	47,	-1,	10,	-1,	-1,	-1,	59,	-1,	-1,	-1,	-1,	-1,	46,	19,	51,	-1,	54,	-1,	-1,	-1,	-1,	-1,	-1,	-1,	12,	53,	-1,	-1,	42,	-1,	-1,	-1,	-1,	33,	-1,	-1,	-1,	56,	-1|
-1,	31,	-1,	-1,	47,	-1,	-1,	-1,	-1,	-1,	49,	-1,	-1,	-1,	63,	-1,	-1,	-1,	28,	56,	61,	41,	-1,	-1,	-1,	-1,	-1,	-1,	-1,	-1,	-1,	-1,	60,	-1,	34,	13,	54,	-1,	26,	-1,	-1,	-1,	-1,	30,	-1,	45,	-1,	-1,	55,	15,	19,	-1,	3,	-1,	57,	58,	-1,	-1,	7,	-1,	-1,	-1,	46,	29|
-1,	-1,	-1,	5,	-1,	46,	-1,	-1,	50,	-1,	-1,	-1,	10,	-1,	6,	19,	-1,	52,	-1,	-1,	7,	-1,	-1,	-1,	-1,	-1,	-1,	-1,	3,	64,	34,	49,	-1,	-1,	-1,	-1,	-1,	-1,	-1,	-1,	-1,	-1,	-1,	-1,	-1,	-1,	41,	33,	1,	17,	-1,	-1,	29,	61,	-1,	-1,	-1,	-1,	37,	35,	53,	44,	-1,	4|
-1,	-1,	-1,	-1,	58,	27,	1,	-1,	-1,	-1,	-1,	-1,	4,	-1,	11,	33,	19,	-1,	-1,	38,	-1,	-1,	53,	-1,	41,	6,	17,	-1,	-1,	30,	-1,	-1,	59,	-1,	10,	-1,	-1,	-1,	5,	35,	-1,	61,	-1,	57,	-1,	-1,	25,	-1,	-1,	-1,	-1,	-1,	-1,	-1,	-1,	-1,	-1,	55,	47,	14,	31,	63,	-1,	-1|
-1,	40,	-1,	33,	-1,	57,	-1,	1,	-1,	-1,	47,	18,	-1,	19,	62,	-1,	45,	-1,	-1,	10,	43,	-1,	64,	-1,	42,	9,	-1,	38,	-1,	-1,	58,	32,	-1,	-1,	46,	7,	3,	12,	-1,	-1,	-1,	-1,	-1,	-1,	48,	55,	20,	-1,	15,	11,	-1,	4,	-1,	56,	14,	-1,	13,	31,	-1,	-1,	34,	17,	-1,	30|
16,	10,	64,	-1,	54,	-1,	-1,	47,	-1,	-1,	-1,	40,	-1,	-1,	-1,	55,	34,	-1,	41,	8,	57,	-1,	20,	-1,	-1,	-1,	-1,	33,	-1,	44,	17,	-1,	56,	-1,	-1,	-1,	-1,	-1,	39,	49,	-1,	52,	-1,	46,	-1,	-1,	-1,	-1,	29,	-1,	-1,	-1,	-1,	59,	25,	-1,	27,	19,	-1,	-1,	3,	28,	9,	14|
-1,	49,	-1,	-1,	39,	-1,	42,	-1,	-1,	-1,	-1,	43,	64,	29,	-1,	26,	32,	2,	37,	-1,	51,	-1,	-1,	-1,	20,	40,	15,	31,	-1,	-1,	-1,	3,	-1,	-1,	38,	-1,	-1,	60,	45,	-1,	-1,	18,	-1,	7,	54,	-1,	-1,	-1,	-1,	-1,	-1,	-1,	-1,	-1,	-1,	28,	-1,	-1,	36,	-1,	-1,	-1,	-1,	-1|
50,	-1,	-1,	-1,	43,	-1,	-1,	9,	-1,	-1,	38,	6,	56,	4,	44,	41,	23,	-1,	-1,	-1,	58,	-1,	18,	-1,	51,	2,	-1,	-1,	-1,	46,	-1,	29,	52,	62,	-1,	25,	-1,	-1,	53,	28,	-1,	-1,	-1,	-1,	-1,	14,	57,	63,	34,	19,	-1,	-1,	47,	-1,	-1,	-1,	42,	12,	-1,	-1,	-1,	-1,	-1,	11|
-1,	-1,	-1,	-1,	-1,	-1,	-1,	-1,	-1,	33,	15,	16,	42,	3,	-1,	-1,	21,	-1,	-1,	-1,	28,	-1,	9,	-1,	53,	-1,	56,	-1,	23,	-1,	48,	1,	-1,	-1,	-1,	27,	-1,	-1,	-1,	22,	-1,	-1,	-1,	-1,	-1,	35,	47,	61,	36,	-1,	-1,	-1,	6,	-1,	-1,	10,	-1,	-1,	50,	25,	-1,	-1,	-1,	63|
-1,	41,	-1,	27,	-1,	-1,	-1,	36,	63,	-1,	8,	60,	-1,	24,	-1,	10,	-1,	40,	11,	6,	17,	25,	-1,	-1,	12,	-1,	-1,	-1,	54,	-1,	39,	-1,	19,	64,	-1,	-1,	-1,	57,	21,	-1,	-1,	29,	-1,	-1,	-1,	16,	-1,	28,	49,	-1,	-1,	-1,	22,	-1,	-1,	-1,	61,	-1,	32,	-1,	-1,	-1,	53,	-1|
-1,	-1,	14,	-1,	-1,	-1,	44,	-1,	11,	-1,	45,	-1,	-1,	12,	61,	52,	-1,	-1,	33,	29,	-1,	-1,	-1,	-1,	60,	10,	-1,	64,	-1,	-1,	22,	-1,	-1,	32,	-1,	-1,	-1,	-1,	-1,	-1,	-1,	34,	-1,	27,	-1,	-1,	56,	-1,	-1,	24,	16,	17,	37,	-1,	-1,	-1,	-1,	-1,	-1,	46,	-1,	54,	-1,	-1|
29,	-1,	-1,	-1,	-1,	-1,	5,	15,	-1,	-1,	9,	-1,	-1,	-1,	53,	-1,	3,	-1,	-1,	-1,	22,	-1,	24,	-1,	19,	52,	-1,	27,	-1,	-1,	49,	-1,	-1,	-1,	50,	16,	42,	6,	34,	-1,	30,	44,	-1,	-1,	-1,	-1,	-1,	-1,	-1,	-1,	-1,	-1,	-1,	-1,	32,	39,	-1,	-1,	-1,	33,	58,	41,	2,	-1|
-1,	-1,	54,	40,	4,	-1,	-1,	29,	-1,	-1,	-1,	23,	-1,	-1,	28,	32,	55,	-1,	-1,	-1,	-1,	-1,	33,	-1,	-1,	7,	-1,	-1,	-1,	-1,	14,	-1,	34,	60,	-1,	-1,	-1,	-1,	-1,	-1,	27,	-1,	-1,	-1,	49,	-1,	-1,	-1,	-1,	-1,	5,	-1,	-1,	-1,	-1,	2,	-1,	-1,	-1,	-1,	-1,	-1,	6,	-1|
-1,	27,	52,	-1,	-1,	48,	-1,	5,	-1,	-1,	-1,	-1,	-1,	-1,	3,	-1,	-1,	-1,	22,	57,	26,	32,	6,	-1,	18,	-1,	-1,	-1,	-1,	-1,	-1,	-1,	-1,	-1,	36,	12,	-1,	56,	-1,	-1,	-1,	-1,	28,	-1,	30,	-1,	-1,	-1,	-1,	-1,	13,	-1,	-1,	-1,	-1,	62,	10,	16,	-1,	-1,	-1,	-1,	-1,	-1|
-1,	47,	-1,	25,	44,	-1,	-1,	-1,	19,	22,	-1,	-1,	40,	-1,	-1,	54,	-1,	64,	-1,	14,	8,	23,	-1,	-1,	-1,	-1,	-1,	51,	-1,	-1,	28,	2,	-1,	18,	-1,	-1,	16,	62,	-1,	1,	-1,	21,	32,	39,	-1,	-1,	-1,	29,	-1,	-1,	17,	35,	7,	-1,	58,	50,	-1,	-1,	-1,	-1,	-1,	26,	-1,	-1|
23,	-1,	3,	-1,	50,	-1,	-1,	-1,	-1,	6,	-1,	-1,	15,	-1,	-1,	-1,	-1,	-1,	-1,	-1,	63,	48,	19,	43,	8,	-1,	36,	13,	-1,	4,	-1,	39,	-1,	-1,	22,	-1,	58,	45,	-1,	27,	18,	57,	54,	25,	10,	-1,	-1,	1,	-1,	31,	11,	-1,	34,	-1,	-1,	-1,	28,	64,	-1,	20,	-1,	-1,	-1,	-1|
-1,	58,	7,	-1,	13,	-1,	-1,	32,	-1,	62,	39,	-1,	48,	-1,	-1,	-1,	38,	-1,	27,	11,	-1,	-1,	-1,	46,	31,	23,	60,	-1,	63,	10,	-1,	-1,	21,	-1,	-1,	-1,	57,	24,	-1,	-1,	-1,	-1,	-1,	6,	14,	-1,	-1,	-1,	-1,	-1,	-1,	-1,	-1,	52,	-1,	-1,	-1,	-1,	-1,	51,	-1,	3,	-1,	-1|
-1,	-1,	-1,	-1,	-1,	26,	-1,	56,	-1,	63,	-1,	-1,	2,	50,	27,	-1,	35,	-1,	-1,	-1,	13,	-1,	-1,	-1,	5,	-1,	-1,	-1,	52,	-1,	-1,	-1,	3,	-1,	-1,	46,	6,	28,	61,	-1,	-1,	-1,	16,	19,	-1,	-1,	-1,	-1,	-1,	-1,	4,	-1,	25,	-1,	44,	18,	47,	-1,	59,	-1,	-1,	-1,	36,	-1|
61,	-1,	-1,	30,	-1,	33,	-1,	-1,	64,	16,	-1,	51,	57,	-1,	56,	-1,	15,	-1,	-1,	-1,	-1,	2,	-1,	-1,	-1,	-1,	19,	-1,	-1,	-1,	-1,	-1,	-1,	-1,	-1,	-1,	31,	-1,	-1,	-1,	47,	-1,	-1,	59,	-1,	24,	-1,	-1,	45,	3,	-1,	23,	-1,	39,	53,	-1,	4,	-1,	-1,	27,	-1,	-1,	63,	-1|
31,	-1,	2,	-1,	-1,	-1,	-1,	43,	-1,	-1,	-1,	-1,	-1,	-1,	-1,	11,	-1,	29,	-1,	-1,	3,	56,	1,	-1,	6,	-1,	50,	-1,	-1,	-1,	-1,	17,	20,	44,	-1,	-1,	25,	32,	-1,	5,	-1,	36,	58,	40,	-1,	-1,	8,	-1,	-1,	21,	26,	9,	16,	-1,	33,	-1,	-1,	-1,	38,	-1,	18,	-1,	-1,	-1|
-1,	-1,	-1,	-1,	-1,	39,	14,	-1,	-1,	53,	60,	1,	-1,	20,	-1,	-1,	2,	-1,	48,	-1,	-1,	15,	56,	19,	30,	-1,	25,	4,	13,	34,	-1,	54,	-1,	-1,	63,	38,	-1,	8,	-1,	-1,	-1,	7,	49,	11,	-1,	-1,	-1,	-1,	-1,	-1,	36,	43,	-1,	10,	18,	16,	-1,	-1,	-1,	-1,	6,	64,	-1,	44|
30,	-1,	-1,	31,	-1,	-1,	8,	-1,	-1,	-1,	6,	-1,	28,	15,	-1,	-1,	-1,	-1,	-1,	33,	-1,	-1,	-1,	-1,	45,	12,	-1,	-1,	19,	-1,	3,	53,	-1,	-1,	-1,	64,	44,	36,	-1,	25,	-1,	-1,	-1,	-1,	18,	-1,	-1,	-1,	42,	-1,	-1,	52,	-1,	5,	-1,	37,	-1,	26,	-1,	1,	-1,	-1,	-1,	-1|
4,	-1,	1,	-1,	-1,	23,	-1,	-1,	-1,	-1,	63,	-1,	12,	-1,	-1,	22,	-1,	44,	50,	-1,	-1,	-1,	-1,	9,	-1,	-1,	-1,	-1,	-1,	51,	7,	-1,	14,	-1,	-1,	-1,	-1,	34,	-1,	56,	41,	-1,	46,	28,	-1,	-1,	-1,	-1,	54,	40,	20,	-1,	64,	49,	-1,	-1,	-1,	-1,	-1,	-1,	36,	18,	-1,	-1|
2,	-1,	-1,	58,	10,	-1,	-1,	-1,	46,	36,	-1,	-1,	49,	23,	41,	-1,	26,	24,	-1,	63,	11,	-1,	32,	55,	-1,	-1,	-1,	-1,	27,	37,	42,	-1,	-1,	19,	-1,	40,	5,	7,	47,	-1,	-1,	8,	-1,	1,	20,	-1,	6,	-1,	-1,	60,	21,	-1,	-1,	-1,	15,	-1,	-1,	-1,	-1,	-1,	-1,	35,	57,	38|
53,	42,	-1,	-1,	-1,	51,	13,	-1,	3,	45,	56,	-1,	-1,	-1,	4,	-1,	-1,	8,	6,	40,	-1,	-1,	-1,	-1,	-1,	-1,	-1,	-1,	14,	50,	-1,	31,	10,	-1,	-1,	-1,	35,	-1,	-1,	59,	-1,	-1,	5,	-1,	47,	30,	-1,	16,	-1,	58,	-1,	1,	9,	-1,	48,	-1,	22,	-1,	-1,	-1,	29,	-1,	-1,	-1|
-1,	-1,	35,	-1,	27,	40,	-1,	57,	-1,	54,	14,	25,	44,	-1,	-1,	-1,	31,	41,	-1,	-1,	20,	3,	-1,	42,	28,	55,	-1,	-1,	17,	-1,	36,	-1,	-1,	-1,	-1,	-1,	-1,	-1,	-1,	18,	-1,	-1,	-1,	-1,	45,	-1,	61,	-1,	8,	38,	-1,	-1,	-1,	-1,	-1,	34,	56,	7,	-1,	-1,	-1,	62,	-1,	-1|
5,	12,	-1,	-1,	-1,	44,	-1,	-1,	55,	-1,	-1,	-1,	-1,	-1,	17,	-1,	-1,	-1,	-1,	-1,	-1,	-1,	51,	-1,	-1,	-1,	20,	-1,	38,	-1,	64,	-1,	31,	-1,	28,	-1,	-1,	-1,	-1,	-1,	40,	35,	-1,	-1,	-1,	42,	-1,	56,	11,	-1,	-1,	-1,	13,	-1,	39,	-1,	-1,	-1,	-1,	15,	63,	-1,	-1,	-1|
63,	-1,	19,	6,	38,	-1,	64,	-1,	-1,	31,	5,	-1,	-1,	-1,	50,	7,	-1,	-1,	-1,	28,	-1,	-1,	45,	-1,	58,	-1,	49,	-1,	-1,	-1,	-1,	-1,	-1,	16,	3,	-1,	-1,	-1,	33,	32,	-1,	-1,	10,	36,	-1,	-1,	-1,	-1,	-1,	46,	-1,	-1,	62,	-1,	-1,	-1,	17,	20,	-1,	-1,	4,	-1,	-1,	37|
1,	-1,	42,	-1,	-1,	-1,	15,	28,	-1,	-1,	3,	55,	19,	-1,	-1,	-1,	-1,	48,	2,	-1,	-1,	6,	-1,	49,	-1,	-1,	-1,	46,	45,	-1,	-1,	41,	-1,	43,	13,	-1,	-1,	59,	-1,	-1,	11,	22,	35,	-1,	37,	39,	-1,	-1,	64,	-1,	-1,	-1,	32,	12,	27,	-1,	-1,	-1,	-1,	-1,	30,	-1,	-1,	-1|
-1,	-1,	-1,	-1,	-1,	55,	-1,	-1,	-1,	56,	48,	10,	51,	-1,	-1,	12,	-1,	-1,	57,	-1,	-1,	11,	-1,	44,	-1,	60,	37,	-1,	-1,	-1,	16,	35,	-1,	-1,	-1,	47,	-1,	49,	22,	-1,	-1,	-1,	-1,	61,	-1,	-1,	36,	-1,	-1,	-1,	-1,	-1,	-1,	13,	-1,	-1,	59,	-1,	-1,	-1,	27,	53,	-1,	-1|
10,	62,	49,	-1,	-1,	-1,	-1,	-1,	-1,	15,	-1,	-1,	-1,	-1,	31,	-1,	63,	-1,	-1,	-1,	-1,	-1,	3,	20,	-1,	-1,	-1,	-1,	18,	-1,	2,	42,	-1,	-1,	-1,	-1,	-1,	-1,	-1,	-1,	-1,	59,	60,	-1,	9,	27,	-1,	46,	25,	61,	14,	-1,	-1,	38,	22,	-1,	43,	-1,	52,	-1,	47,	-1,	-1,	-1|
-1,	16,	-1,	-1,	-1,	-1,	40,	-1,	-1,	38,	22,	39,	35,	-1,	30,	-1,	17,	-1,	-1,	-1,	-1,	47,	-1,	-1,	-1,	-1,	6,	-1,	-1,	14,	-1,	-1,	-1,	-1,	23,	-1,	-1,	42,	-1,	-1,	49,	-1,	45,	33,	-1,	-1,	-1,	-1,	-1,	59,	-1,	-1,	-1,	-1,	-1,	-1,	-1,	-1,	-1,	-1,	2,	46,	-1,	-1|
-1,	22,	59,	-1,	64,	-1,	53,	-1,	-1,	-1,	62,	28,	13,	-1,	-1,	47,	-1,	31,	54,	-1,	-1,	7,	-1,	-1,	-1,	1,	-1,	-1,	-1,	33,	-1,	63,	-1,	11,	-1,	-1,	14,	19,	-1,	-1,	-1,	25,	-1,	-1,	-1,	40,	51,	41,	-1,	-1,	30,	-1,	4,	-1,	-1,	8,	37,	-1,	-1,	-1,	-1,	-1,	-1,	21|
-1,	-1,	-1,	47,	-1,	5,	-1,	-1,	49,	-1,	-1,	45,	-1,	-1,	-1,	2,	-1,	19,	34,	35,	9,	-1,	-1,	28,	15,	-1,	13,	-1,	55,	-1,	-1,	-1,	-1,	-1,	-1,	10,	24,	-1,	-1,	38,	-1,	-1,	-1,	-1,	-1,	-1,	62,	-1,	6,	-1,	-1,	-1,	-1,	7,	21,	53,	25,	58,	-1,	54,	-1,	-1,	-1,	-1|
-1,	-1,	45,	-1,	37,	-1,	58,	8,	-1,	-1,	-1,	54,	11,	-1,	18,	14,	-1,	38,	-1,	-1,	42,	24,	-1,	-1,	23,	-1,	-1,	59,	32,	17,	25,	-1,	-1,	-1,	-1,	9,	-1,	50,	-1,	-1,	6,	48,	47,	-1,	-1,	-1,	-1,	-1,	3,	2,	-1,	60,	-1,	-1,	-1,	-1,	-1,	36,	-1,	40,	-1,	33,	-1,	-1|
-1,	-1,	-1,	-1,	-1,	54,	-1,	27,	23,	-1,	-1,	-1,	-1,	-1,	43,	-1,	13,	60,	21,	-1,	-1,	-1,	-1,	12,	-1,	8,	39,	-1,	-1,	-1,	10,	-1,	-1,	-1,	48,	-1,	-1,	-1,	44,	-1,	15,	63,	50,	-1,	29,	64,	1,	-1,	31,	62,	45,	-1,	-1,	17,	40,	-1,	-1,	51,	-1,	16,	35,	34,	3,	-1|];
