sudoku-ls/benchmarks_LEQ/INST_64x64/40/inst64x64_40_23.txt
8
1
12	46	-1	-1	-1	-1	37	20	-1	-1	-1	63	43	41	-1	-1	-1	-1	24	9	10	-1	42	3	-1	-1	33	-1	29	-1	-1	14	-1	-1	-1	34	47	-1	-1	21	-1	-1	-1	32	-1	-1	-1	-1	-1	25	-1	-1	-1	-1	2	-1	50	-1	55	-1	8	-1	-1	-1
13	39	-1	-1	-1	-1	34	-1	-1	-1	-1	-1	32	-1	-1	23	51	-1	-1	-1	-1	64	-1	-1	-1	41	10	-1	-1	-1	-1	18	4	-1	-1	57	-1	-1	-1	-1	-1	33	-1	-1	-1	-1	43	-1	28	8	48	58	30	-1	31	38	-1	-1	-1	-1	-1	-1	-1	-1
62	-1	-1	-1	53	45	63	-1	-1	-1	-1	17	9	58	8	21	-1	-1	-1	-1	-1	-1	11	-1	36	-1	-1	-1	48	-1	1	64	-1	-1	-1	-1	10	-1	37	-1	19	-1	20	47	28	-1	55	60	14	-1	23	7	-1	57	-1	-1	38	-1	35	-1	-1	-1	-1	33
-1	-1	18	8	-1	-1	-1	-1	-1	-1	-1	30	-1	14	-1	13	-1	-1	-1	-1	-1	-1	4	-1	-1	-1	-1	12	47	-1	-1	-1	62	-1	-1	-1	28	-1	52	9	-1	-1	40	3	63	21	2	-1	-1	51	37	-1	-1	-1	-1	-1	-1	-1	-1	-1	19	49	-1	17
-1	-1	4	-1	-1	-1	-1	-1	-1	-1	-1	-1	-1	34	1	44	-1	58	46	21	12	19	47	-1	-1	-1	-1	5	-1	13	-1	-1	-1	-1	8	-1	60	-1	-1	-1	-1	-1	-1	-1	6	41	-1	37	16	22	-1	-1	40	-1	-1	32	45	15	53	-1	-1	29	-1	-1
-1	36	24	17	-1	58	30	-1	-1	-1	53	-1	-1	-1	55	-1	-1	35	13	2	40	33	-1	23	-1	-1	32	44	-1	-1	-1	-1	-1	-1	-1	-1	-1	-1	-1	-1	54	-1	-1	45	-1	-1	11	26	62	-1	-1	-1	-1	21	-1	-1	48	34	18	-1	14	-1	-1	-1
-1	-1	-1	49	23	60	41	-1	16	-1	-1	24	39	-1	-1	3	-1	-1	-1	37	-1	-1	-1	-1	17	-1	8	43	-1	-1	-1	-1	-1	-1	-1	-1	-1	-1	51	36	56	-1	62	64	-1	-1	10	-1	47	-1	-1	34	-1	-1	-1	13	63	-1	12	-1	-1	9	-1	32
-1	-1	-1	-1	-1	-1	47	-1	-1	19	2	-1	45	-1	22	42	57	43	39	17	48	8	28	60	61	-1	-1	-1	58	16	-1	-1	-1	-1	-1	-1	-1	-1	-1	-1	34	-1	-1	-1	-1	-1	-1	-1	-1	5	-1	-1	-1	24	-1	-1	-1	41	44	-1	-1	10	-1	-1
-1	30	22	60	9	-1	33	-1	-1	-1	61	-1	24	-1	14	8	-1	26	18	58	19	-1	15	-1	-1	-1	63	16	34	-1	-1	-1	48	-1	-1	52	59	-1	56	-1	-1	-1	4	53	-1	-1	-1	-1	39	-1	31	45	43	23	-1	-1	49	-1	-1	12	54	-1	51	57
-1	-1	16	10	-1	50	6	-1	-1	-1	23	4	29	-1	-1	-1	-1	-1	-1	36	-1	52	2	32	-1	-1	-1	-1	-1	35	-1	-1	47	9	49	21	19	64	-1	15	42	56	-1	41	-1	-1	-1	-1	-1	-1	-1	38	-1	1	-1	3	24	-1	-1	-1	44	-1	61	13
-1	-1	41	-1	24	-1	-1	49	42	-1	-1	56	-1	21	51	16	-1	9	-1	-1	47	-1	-1	-1	-1	-1	46	-1	-1	58	15	-1	35	-1	29	39	-1	22	-1	-1	3	-1	-1	-1	-1	34	30	43	18	13	7	11	52	-1	-1	-1	26	-1	62	17	-1	-1	-1	6
-1	26	13	53	20	32	-1	-1	36	-1	-1	-1	-1	-1	-1	28	39	1	-1	3	-1	12	57	21	11	-1	-1	29	-1	-1	6	-1	-1	10	7	-1	-1	44	-1	-1	24	-1	14	54	-1	-1	-1	-1	60	-1	-1	51	-1	-1	-1	49	-1	-1	8	22	38	-1	-1	59
-1	-1	36	-1	51	14	-1	-1	52	-1	-1	-1	-1	55	9	-1	-1	7	-1	-1	-1	-1	-1	-1	48	13	1	-1	-1	-1	62	-1	-1	-1	30	28	-1	53	58	61	57	-1	-1	-1	-1	-1	-1	6	-1	-1	-1	2	-1	41	-1	-1	-1	33	15	-1	46	25	20	40
-1	56	8	11	57	-1	-1	-1	-1	3	41	46	-1	-1	-1	15	-1	-1	-1	59	-1	-1	-1	63	-1	-1	22	-1	24	-1	-1	-1	51	27	-1	-1	45	-1	42	-1	9	49	-1	50	12	52	-1	23	-1	33	54	-1	-1	-1	-1	-1	-1	-1	64	-1	-1	16	55	-1
28	-1	-1	-1	34	4	52	-1	-1	-1	-1	22	58	2	-1	-1	-1	-1	-1	23	-1	44	-1	50	-1	-1	43	-1	-1	-1	-1	57	6	26	-1	-1	-1	16	-1	55	-1	-1	29	-1	25	10	-1	-1	-1	-1	32	24	-1	-1	30	-1	-1	-1	3	-1	48	19	-1	-1
-1	44	-1	-1	-1	-1	-1	-1	32	-1	-1	38	-1	-1	-1	-1	22	13	-1	-1	6	49	43	-1	37	-1	26	30	-1	39	-1	52	11	-1	-1	24	-1	25	-1	-1	-1	-1	15	-1	61	-1	-1	59	-1	42	-1	19	-1	4	-1	-1	-1	47	-1	-1	-1	-1	29	-1
51	-1	27	22	59	-1	-1	19	44	61	-1	-1	-1	-1	-1	-1	-1	-1	-1	7	-1	-1	-1	57	3	31	-1	63	-1	48	35	-1	-1	24	-1	-1	-1	-1	20	60	-1	-1	-1	-1	-1	43	23	-1	-1	-1	-1	-1	-1	11	16	-1	55	28	9	-1	64	-1	26	-1
60	37	-1	-1	49	-1	-1	44	-1	23	-1	26	-1	-1	-1	-1	18	-1	-1	5	-1	35	62	-1	-1	28	-1	-1	53	-1	57	-1	41	-1	-1	-1	27	38	-1	-1	20	-1	-1	-1	1	11	-1	-1	7	36	15	3	-1	31	-1	19	46	8	-1	-1	50	4	-1	-1
25	-1	-1	13	-1	31	-1	-1	22	8	-1	-1	5	-1	16	-1	29	32	19	-1	-1	-1	-1	-1	-1	-1	47	50	-1	-1	-1	-1	-1	-1	-1	-1	-1	-1	-1	46	-1	-1	63	10	-1	-1	-1	-1	-1	-1	44	-1	-1	-1	-1	-1	34	35	41	43	-1	-1	-1	39
42	53	-1	-1	-1	-1	-1	-1	-1	-1	-1	58	14	10	-1	-1	46	6	-1	-1	44	-1	-1	-1	-1	64	54	-1	4	-1	43	27	-1	-1	1	-1	-1	33	32	-1	-1	-1	-1	5	-1	18	16	47	-1	-1	9	62	-1	25	34	-1	15	-1	-1	-1	11	37	23	20
40	52	21	-1	-1	-1	61	4	-1	-1	-1	32	33	-1	-1	-1	-1	-1	-1	-1	-1	54	41	-1	-1	-1	-1	49	-1	19	-1	-1	28	-1	58	-1	-1	-1	-1	50	51	-1	-1	-1	-1	-1	-1	57	30	-1	-1	-1	46	-1	6	-1	3	63	-1	-1	59	-1	-1	-1
26	-1	-1	-1	30	-1	-1	-1	-1	11	-1	-1	20	48	64	-1	-1	-1	-1	-1	-1	9	-1	13	14	46	29	-1	-1	6	-1	-1	5	63	57	37	-1	-1	-1	-1	-1	-1	41	-1	-1	-1	40	-1	38	53	33	-1	-1	-1	47	-1	12	2	-1	-1	-1	-1	27	61
-1	5	57	18	56	-1	-1	10	37	-1	-1	-1	-1	1	-1	-1	48	-1	20	34	15	17	21	59	2	16	-1	-1	-1	-1	-1	-1	-1	-1	43	31	-1	-1	-1	-1	-1	-1	61	42	64	38	39	27	23	4	-1	13	-1	-1	-1	-1	60	-1	-1	62	40	-1	-1	-1
-1	14	63	-1	-1	-1	9	11	-1	-1	-1	50	-1	-1	-1	-1	-1	30	-1	1	-1	-1	-1	-1	-1	5	-1	20	-1	-1	13	-1	8	40	56	-1	-1	23	59	-1	7	6	-1	-1	-1	-1	-1	2	-1	-1	-1	29	-1	-1	-1	-1	-1	53	24	-1	-1	-1	-1	25
35	-1	-1	-1	-1	-1	39	-1	-1	-1	-1	-1	-1	-1	-1	-1	-1	5	-1	4	-1	46	-1	-1	-1	19	9	-1	20	-1	-1	45	-1	53	-1	33	50	-1	-1	44	36	31	21	-1	22	-1	59	49	13	-1	-1	41	38	51	7	40	-1	11	-1	34	60	-1	-1	-1
-1	-1	-1	-1	41	63	-1	-1	-1	32	-1	64	47	56	-1	-1	-1	51	-1	54	-1	62	-1	24	27	-1	-1	-1	-1	-1	61	58	49	-1	21	2	52	40	-1	-1	-1	-1	-1	55	3	12	-1	35	-1	-1	-1	-1	-1	-1	37	6	-1	17	23	-1	20	43	-1	-1
57	-1	-1	61	2	-1	-1	-1	8	-1	-1	59	3	45	26	51	44	-1	15	-1	35	58	-1	40	-1	-1	-1	14	-1	-1	-1	-1	-1	38	-1	-1	-1	-1	-1	-1	-1	46	-1	-1	19	-1	-1	24	-1	9	-1	22	-1	62	-1	31	-1	39	6	-1	16	-1	-1	-1
-1	-1	34	-1	42	-1	-1	64	-1	-1	-1	14	-1	-1	-1	-1	20	57	3	-1	21	59	-1	-1	29	39	48	23	-1	-1	33	-1	32	-1	-1	15	-1	-1	-1	-1	-1	-1	-1	4	51	-1	-1	40	52	-1	-1	-1	-1	50	-1	-1	-1	-1	-1	19	28	13	54	26
-1	-1	-1	-1	3	49	18	-1	-1	-1	55	9	-1	-1	-1	-1	1	25	-1	-1	-1	34	-1	-1	16	47	-1	-1	5	-1	-1	-1	-1	-1	-1	61	62	-1	-1	-1	29	54	-1	63	-1	6	60	-1	20	12	-1	39	-1	-1	-1	4	-1	22	33	52	-1	-1	56	-1
33	-1	12	20	-1	6	-1	40	62	-1	49	52	16	-1	-1	53	-1	10	28	56	61	41	-1	17	-1	-1	-1	-1	-1	18	38	-1	60	-1	-1	13	54	-1	-1	-1	-1	9	-1	-1	5	-1	-1	-1	-1	-1	-1	-1	-1	35	57	-1	-1	-1	7	-1	-1	-1	46	29
-1	15	-1	-1	-1	46	-1	-1	-1	-1	31	2	10	39	6	-1	47	-1	-1	55	7	18	26	22	13	-1	-1	-1	-1	64	34	-1	-1	-1	-1	45	-1	48	57	-1	43	58	-1	-1	-1	-1	-1	33	-1	17	24	-1	-1	-1	-1	25	40	-1	-1	35	-1	44	32	-1
44	29	-1	-1	58	-1	-1	-1	-1	24	54	-1	-1	22	11	-1	-1	49	-1	-1	-1	-1	-1	39	-1	-1	-1	-1	-1	30	12	51	59	-1	10	18	-1	3	-1	-1	37	-1	7	-1	52	-1	25	8	-1	-1	46	-1	-1	16	-1	-1	2	-1	-1	14	-1	63	-1	-1
-1	-1	-1	33	-1	57	24	-1	-1	-1	-1	-1	-1	-1	-1	-1	-1	61	-1	-1	-1	-1	64	-1	-1	9	41	-1	-1	-1	-1	-1	29	-1	46	-1	-1	12	-1	-1	-1	60	-1	8	48	-1	-1	-1	-1	11	27	4	23	-1	-1	-1	-1	31	16	44	-1	17	-1	30
-1	-1	-1	-1	54	13	60	-1	58	48	50	40	37	-1	32	-1	-1	63	41	-1	-1	53	-1	30	24	-1	-1	33	-1	44	-1	-1	56	-1	-1	43	-1	51	39	-1	-1	52	23	-1	62	-1	-1	21	29	45	-1	-1	-1	-1	25	-1	27	-1	-1	-1	-1	28	9	-1
17	-1	-1	-1	-1	-1	42	-1	-1	-1	-1	43	64	29	46	-1	-1	-1	-1	-1	51	-1	-1	52	20	-1	15	31	-1	-1	-1	-1	33	-1	38	4	-1	-1	45	-1	-1	-1	11	-1	-1	5	24	19	-1	-1	-1	-1	53	9	-1	28	6	-1	36	-1	-1	55	10	-1
-1	21	-1	-1	43	22	-1	-1	17	-1	38	6	56	4	-1	41	-1	-1	35	13	58	-1	-1	48	-1	-1	-1	45	-1	-1	-1	29	-1	-1	-1	25	-1	-1	-1	-1	32	-1	-1	49	33	-1	57	-1	-1	-1	-1	-1	47	64	60	-1	42	12	1	7	-1	20	37	11
8	18	-1	45	11	-1	32	51	-1	33	15	16	-1	3	20	-1	-1	-1	-1	-1	-1	-1	-1	-1	53	62	56	-1	-1	-1	-1	-1	44	-1	-1	-1	17	2	-1	22	-1	-1	-1	12	41	35	-1	-1	-1	7	-1	-1	-1	-1	13	10	-1	-1	-1	-1	-1	-1	-1	63
-1	-1	-1	27	-1	-1	-1	-1	-1	-1	8	60	-1	-1	-1	10	-1	40	11	6	-1	-1	7	-1	12	-1	-1	-1	54	-1	-1	-1	19	-1	31	-1	48	57	21	-1	45	29	-1	38	-1	-1	-1	-1	-1	-1	52	-1	-1	33	-1	-1	-1	-1	-1	47	-1	-1	-1	-1
48	23	-1	-1	19	-1	-1	53	-1	28	45	-1	-1	-1	-1	-1	50	-1	33	-1	-1	-1	55	-1	-1	-1	-1	64	21	-1	-1	13	9	32	47	63	8	-1	41	-1	58	34	-1	-1	15	-1	56	-1	-1	24	16	-1	-1	43	3	30	35	-1	40	46	-1	-1	-1	51
-1	61	-1	-1	35	28	-1	15	-1	7	-1	36	-1	-1	53	1	3	-1	-1	-1	-1	-1	24	-1	-1	-1	-1	-1	-1	-1	49	4	-1	-1	50	-1	42	-1	34	-1	-1	-1	-1	-1	40	-1	31	17	63	-1	-1	26	20	-1	-1	-1	-1	57	60	33	-1	41	-1	-1
9	-1	-1	40	-1	41	-1	-1	1	-1	10	-1	8	46	28	32	-1	-1	-1	-1	18	31	33	-1	35	7	16	11	64	59	-1	-1	34	-1	-1	26	-1	39	-1	-1	-1	-1	56	-1	49	-1	-1	-1	-1	63	-1	-1	57	-1	-1	2	-1	-1	30	-1	-1	-1	6	-1
-1	-1	52	-1	-1	48	-1	-1	-1	9	-1	41	59	33	3	-1	-1	-1	-1	-1	26	-1	6	-1	18	-1	-1	-1	15	49	-1	24	-1	-1	-1	-1	38	56	43	23	-1	2	28	37	30	-1	35	-1	-1	-1	13	54	19	-1	-1	-1	-1	-1	-1	55	-1	-1	-1	-1
-1	-1	60	-1	44	15	38	-1	19	-1	20	61	-1	-1	-1	54	30	-1	-1	-1	-1	-1	52	37	55	27	-1	-1	-1	56	-1	-1	13	18	-1	49	-1	-1	-1	-1	-1	-1	32	-1	-1	9	33	29	-1	6	-1	-1	-1	48	-1	-1	-1	-1	-1	-1	-1	-1	-1	-1
23	-1	-1	14	50	-1	16	12	-1	6	-1	-1	-1	-1	5	-1	9	21	-1	41	63	-1	19	-1	-1	33	-1	13	-1	-1	46	39	-1	-1	-1	-1	-1	45	30	27	-1	-1	-1	-1	-1	61	44	-1	32	31	-1	-1	-1	55	38	-1	-1	-1	-1	-1	52	56	62	53
18	-1	-1	35	13	-1	-1	-1	-1	-1	-1	-1	-1	53	-1	4	-1	-1	-1	-1	-1	36	-1	-1	31	23	-1	-1	-1	10	-1	-1	-1	47	-1	54	-1	-1	-1	-1	-1	-1	-1	-1	-1	26	50	45	-1	-1	-1	-1	-1	-1	-1	-1	-1	-1	29	-1	-1	-1	40	-1
-1	8	53	-1	-1	-1	-1	56	21	63	-1	-1	-1	50	-1	-1	-1	-1	7	24	-1	10	-1	58	-1	-1	-1	57	-1	-1	32	40	-1	-1	15	-1	-1	28	61	48	-1	-1	16	-1	-1	31	12	-1	-1	-1	4	30	-1	-1	44	18	47	9	59	60	-1	22	36	43
-1	-1	-1	-1	-1	33	-1	-1	64	-1	-1	51	-1	-1	56	-1	15	-1	-1	-1	-1	-1	-1	-1	-1	-1	19	-1	-1	29	21	-1	-1	-1	-1	42	-1	-1	-1	11	-1	-1	52	-1	-1	24	-1	-1	-1	-1	-1	-1	-1	-1	-1	-1	-1	32	-1	-1	17	-1	63	-1
-1	-1	2	39	-1	-1	28	-1	-1	14	52	7	55	-1	45	11	12	-1	-1	60	-1	-1	1	61	6	30	-1	-1	62	-1	-1	17	-1	-1	35	-1	-1	32	64	-1	-1	-1	-1	-1	46	-1	8	4	-1	-1	-1	-1	16	27	-1	-1	-1	-1	38	-1	18	23	24	48
-1	-1	-1	41	-1	-1	14	-1	-1	53	60	1	-1	-1	-1	-1	-1	-1	-1	-1	52	-1	56	-1	30	-1	-1	4	13	-1	-1	-1	57	-1	63	-1	-1	-1	46	-1	-1	-1	-1	-1	-1	-1	37	-1	35	-1	36	-1	27	10	18	16	-1	40	-1	-1	-1	-1	-1	-1
-1	-1	47	-1	48	-1	8	7	-1	10	-1	-1	28	-1	-1	43	-1	-1	4	33	-1	-1	-1	-1	-1	12	-1	56	-1	-1	3	53	-1	54	62	-1	-1	-1	-1	-1	-1	55	38	-1	-1	63	-1	51	42	-1	-1	-1	41	5	-1	-1	-1	26	-1	-1	32	58	-1	-1
-1	43	1	-1	15	-1	26	33	47	30	63	-1	-1	11	42	22	-1	-1	-1	16	-1	27	39	9	32	-1	-1	-1	6	-1	7	-1	-1	21	61	58	2	34	-1	56	-1	-1	-1	-1	57	-1	52	31	54	-1	-1	-1	-1	-1	-1	45	-1	10	-1	-1	-1	-1	-1	55
-1	54	-1	-1	-1	18	56	45	-1	-1	-1	13	-1	23	-1	-1	-1	-1	62	-1	-1	14	32	55	-1	-1	-1	-1	27	37	42	16	-1	-1	-1	-1	-1	-1	-1	12	-1	-1	-1	-1	-1	-1	6	-1	-1	60	-1	-1	17	30	-1	33	-1	25	-1	-1	-1	-1	57	-1
-1	42	32	-1	-1	-1	13	25	3	45	-1	62	-1	38	-1	-1	64	8	-1	-1	36	-1	54	-1	-1	-1	-1	-1	-1	50	44	31	-1	-1	37	17	-1	41	-1	59	-1	-1	5	-1	-1	-1	27	-1	-1	-1	-1	1	9	-1	48	63	22	-1	-1	61	-1	-1	-1	2
22	50	35	-1	-1	40	46	-1	-1	-1	-1	-1	-1	-1	19	-1	31	-1	30	-1	20	-1	10	42	28	55	-1	-1	17	63	36	-1	-1	-1	52	-1	1	-1	-1	-1	59	-1	33	-1	45	58	-1	32	-1	-1	-1	6	-1	26	4	34	-1	7	-1	5	-1	62	49	-1
-1	12	-1	36	61	-1	49	-1	55	-1	32	48	26	-1	17	-1	-1	-1	-1	46	-1	-1	51	-1	10	-1	20	41	38	-1	-1	-1	-1	50	-1	-1	-1	-1	-1	45	-1	-1	34	60	-1	42	-1	-1	11	-1	-1	53	-1	-1	39	-1	-1	-1	14	-1	63	27	47	8
-1	-1	-1	-1	38	-1	-1	-1	-1	-1	-1	21	18	-1	-1	7	-1	12	-1	-1	-1	-1	-1	-1	-1	15	49	-1	-1	1	-1	-1	26	16	3	-1	43	-1	-1	-1	-1	-1	-1	-1	-1	-1	-1	-1	-1	-1	-1	-1	-1	2	-1	-1	-1	20	-1	-1	-1	-1	-1	37
-1	-1	42	9	29	-1	15	-1	5	-1	-1	-1	-1	63	21	58	8	-1	2	25	-1	-1	-1	49	-1	-1	-1	-1	45	-1	4	-1	16	43	-1	-1	33	-1	-1	-1	11	22	35	-1	-1	39	7	44	-1	-1	51	-1	-1	-1	-1	-1	-1	-1	-1	-1	-1	57	-1	-1
-1	-1	-1	52	18	55	-1	31	25	-1	-1	-1	51	-1	-1	-1	33	45	57	-1	-1	11	-1	-1	-1	-1	-1	-1	-1	62	-1	35	-1	46	26	-1	63	49	-1	-1	-1	3	-1	-1	2	8	36	34	9	-1	-1	42	-1	-1	-1	-1	-1	-1	-1	-1	-1	53	-1	-1
10	-1	-1	-1	-1	-1	19	-1	-1	15	44	33	-1	-1	-1	-1	-1	-1	40	-1	-1	-1	3	-1	50	-1	-1	-1	-1	-1	-1	-1	58	-1	32	36	-1	-1	-1	34	21	59	-1	-1	-1	27	-1	46	-1	-1	-1	37	-1	-1	22	56	-1	-1	52	-1	47	45	11	-1
-1	-1	-1	-1	-1	-1	-1	13	9	-1	22	-1	-1	-1	-1	27	17	36	-1	-1	-1	47	-1	-1	-1	3	-1	-1	57	14	51	-1	-1	-1	-1	-1	-1	-1	-1	-1	-1	-1	45	33	-1	-1	5	20	-1	59	-1	55	48	29	-1	11	-1	18	-1	4	-1	-1	-1	-1
-1	22	-1	57	64	35	-1	-1	-1	-1	-1	28	13	-1	60	-1	52	31	-1	50	16	-1	-1	10	-1	1	-1	9	36	33	26	63	-1	-1	-1	-1	-1	-1	-1	3	17	-1	-1	-1	-1	-1	-1	-1	-1	-1	-1	-1	4	-1	-1	8	-1	29	-1	38	49	-1	-1	-1
-1	60	44	-1	33	-1	-1	46	-1	-1	1	45	17	-1	37	-1	56	19	34	-1	9	-1	-1	28	15	-1	-1	22	55	-1	-1	-1	-1	-1	-1	10	24	-1	40	-1	12	14	18	-1	4	-1	62	-1	-1	-1	-1	-1	-1	7	-1	-1	-1	58	-1	-1	-1	-1	8	-1
-1	-1	45	51	37	-1	58	8	-1	-1	-1	-1	-1	-1	-1	-1	-1	-1	43	39	-1	-1	-1	-1	23	-1	52	59	32	17	-1	-1	-1	-1	-1	9	61	50	-1	-1	6	48	-1	-1	56	-1	-1	-1	-1	-1	-1	60	-1	15	-1	-1	-1	-1	-1	-1	-1	-1	-1	-1
38	-1	-1	2	-1	-1	-1	27	23	-1	-1	53	41	-1	-1	-1	-1	60	-1	-1	5	-1	46	-1	-1	8	39	19	56	-1	-1	-1	-1	-1	-1	55	7	52	-1	4	15	-1	-1	-1	-1	-1	1	58	-1	-1	45	-1	33	17	-1	-1	-1	-1	-1	-1	-1	-1	-1	9
64 
37 32 42 61
43 32 25 21
48 21 24 36
11 25 55 38
9 38 21 56
2 28 28 35
23 15 27 25
16 53 51 12
21 16 55 30
29 28 22 32
19 39 5 60
19 12 41 64
50 23 58 54
54 11 17 53
6 52 36 18
16 19 60 2
39 52 58 63
14 64 44 41
45 64 11 42
31 44 61 1
37 17 50 57
44 35 23 30
27 46 40 33
21 11 37 35
9 10 49 27
44 29 46 6
45 19 56 9
1 30 59 34
49 16 41 8
53 46 60 15
42 9 47 37
33 32 29 45
24 57 10 46
60 51 44 53
14 7 46 17
9 48 24 32
64 22 12 11
1 33 45 17
43 44 38 31
61 46 58 14
62 61 38 2
6 35 12 26
44 24 41 49
60 25 13 45
11 22 56 23
9 1 24 4
42 31 30 5
54 39 61 59
22 17 33 19
60 3 64 43
20 20 51 30
12 58 17 56
56 42 10 31
8 1 48 57
21 38 30 49
3 18 54 57
47 13 25 57
55 17 56 25
64 14 10 15
11 13 22 28
50 22 64 30
49 41 10 55
62 53 6 23
56 7 15 25
